[2026-03-24T16:02:56.353Z] Pipeline "set_vm-3-t1_vm-3-t1_s029_g002" → 2026_03_24_16_02_56_set_vm-3-t1_vm-3-t1_s029_g002_max.sol
Set parameter Username
Set parameter LicenseID to value 2796068
Set parameter LogFile to value "gurobi.log"
Using license file /opt/gurobi/gurobi.lic
Academic license - for non-commercial use only - expires 2027-03-23

Gurobi Optimizer version 13.0.1 build v13.0.1rc0 (linux64 - "Ubuntu 24.04.4 LTS")
Copyright (c) 2026, Gurobi Optimization, LLC

Warning: Duplicate section found (read 'binary') - Is a variable name equal to an LP file format keyword?
Warning: Duplicate section found (read 'binary') - Is a variable name equal to an LP file format keyword?
Warning: Duplicate section found (read 'binary') - Is a variable name equal to an LP file format keyword?
Warning: Duplicate section found (read 'binary') - Is a variable name equal to an LP file format keyword?
Warning: Duplicate section found (read 'binary') - Is a variable name equal to an LP file format keyword?
Warning: Duplicate section found (read 'binary') - Is a variable name equal to an LP file format keyword?
Warning: Duplicate section found (read 'binary') - Is a variable name equal to an LP file format keyword?
Warning: Duplicate section found (read 'binary') - Is a variable name equal to an LP file format keyword?
Warning: Duplicate section found (read 'binary') - Is a variable name equal to an LP file format keyword?
Warning: Duplicate section found (read 'binary') - Is a variable name equal to an LP file format keyword?
Warning: Further warnings of this type will be omitted.
Read LP format model from file /root/bgw/data/uploads/2026_03_24_16_02_56_set_vm-3-t1_vm-3-t1_s029_g002_max.lp
Reading time = 0.02 seconds
: 18731 rows, 869 columns, 57241 nonzeros

Using Gurobi shared library /opt/gurobi1301/linux64/lib/libgurobi.so.13.0.1

CPU model: AMD EPYC-Genoa Processor, instruction set [SSE2|AVX|AVX2|AVX512]
Thread count: 16 physical cores, 16 logical processors, using up to 16 threads

Optimize a model with 18731 rows, 869 columns and 57241 nonzeros (Max)
Model fingerprint: 0x5f99996f
Model has 18 linear objective coefficients
Variable types: 57 continuous, 812 integer (812 binary)
Coefficient statistics:
  Matrix range     [1e+00, 4e+01]
  Objective range  [1e+00, 1e+00]
  Bounds range     [1e+00, 1e+00]
  RHS range        [1e+00, 4e+01]

Found heuristic solution: objective 18.0000000
Presolve removed 418 rows and 107 columns
Presolve time: 0.06s
Presolved: 18313 rows, 762 columns, 55191 nonzeros
Variable types: 0 continuous, 762 integer (755 binary)
Found heuristic solution: objective 25.0000000

Root relaxation: objective 9.400000e+01, 561 iterations, 0.05 seconds (0.07 work units)

    Nodes    |    Current Node    |     Objective Bounds      |     Work
 Expl Unexpl |  Obj  Depth IntInf | Incumbent    BestBd   Gap | It/Node Time

     0     0   94.00000    0   22   25.00000   94.00000   276%     -    0s
H    0     0                      35.0000000   94.00000   169%     -    0s
H    0     0                      43.0000000   94.00000   119%     -    0s
H    0     0                      47.0000000   94.00000   100%     -    0s
H    0     0                      48.0000000   94.00000  95.8%     -    0s
H    0     0                      49.0000000   94.00000  91.8%     -    0s
H    0     0                      50.0000000   94.00000  88.0%     -    0s
     0     0   94.00000    0   30   50.00000   94.00000  88.0%     -    0s
     0     0   94.00000    0   30   50.00000   94.00000  88.0%     -    0s
     0     0   94.00000    0   29   50.00000   94.00000  88.0%     -    0s
     0     0   94.00000    0   21   50.00000   94.00000  88.0%     -    0s
     0     0   94.00000    0   25   50.00000   94.00000  88.0%     -    0s
     0     0   94.00000    0   19   50.00000   94.00000  88.0%     -    0s
     0     0   87.00000    0   19   50.00000   87.00000  74.0%     -    0s
     0     0   87.00000    0   19   50.00000   87.00000  74.0%     -    0s
     0     0   87.00000    0   25   50.00000   87.00000  74.0%     -    0s
     0     0   87.00000    0   24   50.00000   87.00000  74.0%     -    1s
     0     0   87.00000    0   24   50.00000   87.00000  74.0%     -    1s
     0     0   87.00000    0   24   50.00000   87.00000  74.0%     -    1s
     0     0   87.00000    0   22   50.00000   87.00000  74.0%     -    1s
     0     0   87.00000    0   22   50.00000   87.00000  74.0%     -    1s
     0     0   87.00000    0   28   50.00000   87.00000  74.0%     -    1s
     0     0   87.00000    0   22   50.00000   87.00000  74.0%     -    1s
     0     0   87.00000    0   22   50.00000   87.00000  74.0%     -    1s
     0     0   87.00000    0   22   50.00000   87.00000  74.0%     -    1s
     0     2   87.00000    0   22   50.00000   87.00000  74.0%     -    1s
   672   250   77.54054   10   27   50.00000   86.51351  73.0%   223    5s
  2018   227   64.70173   10   57   50.00000   72.06447  44.1%   244   10s

Cutting planes:
  Cover: 7
  MIR: 3
  StrongCG: 1
  Inf proof: 47

Explored 3120 nodes (816502 simplex iterations) in 14.34 seconds (29.47 work units)
Thread count was 16 (of 16 available processors)

Solution count 8: 50 49 48 ... 18

Optimal solution found (tolerance 1.00e-04)
Best objective 5.000000000000e+01, best bound 5.000000000000e+01, gap 0.0000%

Wrote result file '/root/bgw/data/results/2026_03_24_16_02_56_set_vm-3-t1_vm-3-t1_s029_g002_max.sol'

